500
    1   274   274
    2   447   447
    3    71    71
    4   483   483
    5    61    61
    6   425   425
    7   158   158
    8   109   109
    9    35    35
   10    14    14
   11   292   292
   12   498   498
   13    60    60
   14    34    34
   15   370   370
   16   304   304
   17    84    84
   18   495   495
   19   389   389
   20   243   243
   21     6     6
   22   400   400
   23   466   466
   24    32    32
   25   419   419
   26   112   112
   27   139   139
   28    35    35
   29   383   383
   30   336   336
   31    27    27
   32   309   309
   33   396   396
   34   235   235
   35   411   411
   36    99    99
   37   128   128
   38   427   427
   39   433   433
   40   466   466
   41   176   176
   42   454   454
   43   254   254
   44   280   280
   45   279   279
   46   177   177
   47    89    89
   48   329   329
   49   407   407
   50   370   370
   51   127   127
   52   203   203
   53   433   433
   54   457   457
   55   126   126
   56    20    20
   57   124   124
   58    23    23
   59   462   462
   60   177   177
   61    96    96
   62    90    90
   63   470   470
   64   125   125
   65   382   382
   66   189   189
   67    16    16
   68   156   156
   69   395   395
   70   180   180
   71   260   260
   72   354   354
   73   423   423
   74   446   446
   75    35    35
   76   444   444
   77   223   223
   78   451   451
   79    17    17
   80   476   476
   81   258   258
   82    17    17
   83   388   388
   84    18    18
   85   489   489
   86   102   102
   87    20    20
   88   164   164
   89   398   398
   90   339   339
   91   345   345
   92    96    96
   93   376   376
   94   409   409
   95   276   276
   96   317   317
   97   438   438
   98   109   109
   99   163   163
  100   230   230
  101   325   325
  102   344   344
  103   251   251
  104   483   483
  105   112   112
  106   164   164
  107   235   235
  108   118   118
  109    99    99
  110   269   269
  111   122   122
  112   395   395
  113   276   276
  114   387   387
  115   189   189
  116   161   161
  117    67    67
  118   365   365
  119   473   473
  120   412   412
  121   327   327
  122   297   297
  123   333   333
  124    95    95
  125   162   162
  126   394   394
  127   261   261
  128    42    42
  129   394   394
  130   379   379
  131   355   355
  132   470   470
  133   359   359
  134   190   190
  135   441   441
  136    66    66
  137   219   219
  138   261   261
  139   240   240
  140    26    26
  141   320   320
  142    22    22
  143   472   472
  144   180   180
  145   305   305
  146     2     2
  147    22    22
  148   390   390
  149    78    78
  150   227   227
  151   471   471
  152   203   203
  153   237   237
  154   219   219
  155   230   230
  156   494   494
  157   239   239
  158    17    17
  159   201   201
  160   244   244
  161   372   372
  162   264   264
  163    80    80
  164   399   399
  165   461   461
  166   278   278
  167   164   164
  168   147   147
  169   264   264
  170   166   166
  171   308   308
  172    29    29
  173   306   306
  174    39    39
  175   435   435
  176   148   148
  177    69    69
  178    65    65
  179   290   290
  180   459   459
  181   479   479
  182   187   187
  183    91    91
  184   302   302
  185    71    71
  186   486   486
  187   294   294
  188   241   241
  189   459   459
  190    45    45
  191   168   168
  192    79    79
  193   344   344
  194   466   466
  195   375   375
  196   237   237
  197   379   379
  198    89    89
  199   467   467
  200   205   205
  201   216   216
  202   341   341
  203   471   471
  204    58    58
  205    77    77
  206   243   243
  207   263   263
  208    34    34
  209   184   184
  210   460   460
  211   169   169
  212    20    20
  213    46    46
  214   339   339
  215   453   453
  216   497   497
  217     5     5
  218   135   135
  219   144   144
  220   333   333
  221   389   389
  222   230   230
  223   106   106
  224    15    15
  225   280   280
  226   350   350
  227   148   148
  228   204   204
  229   496   496
  230    79    79
  231   369   369
  232   446   446
  233   478   478
  234   128   128
  235   336   336
  236   126   126
  237   180   180
  238   367   367
  239   495   495
  240   172   172
  241   294   294
  242   282   282
  243   175   175
  244    95    95
  245    82    82
  246    47    47
  247    93    93
  248   304   304
  249   204   204
  250   300   300
  251   489   489
  252   253   253
  253    98    98
  254   257   257
  255   378   378
  256   187   187
  257    57    57
  258   388   388
  259   234   234
  260   469   469
  261   100   100
  262    99    99
  263   372   372
  264   392   392
  265   137   137
  266   189   189
  267   419   419
  268   151   151
  269    55    55
  270   310   310
  271   397   397
  272   112   112
  273   488   488
  274   121   121
  275   453   453
  276   222   222
  277   344   344
  278   236   236
  279   111   111
  280    94    94
  281   430   430
  282   479   479
  283   231   231
  284   425   425
  285   434   434
  286   158   158
  287   486   486
  288   192   192
  289   164   164
  290     9     9
  291   289   289
  292   415   415
  293    61    61
  294   298   298
  295   354   354
  296   132   132
  297   299   299
  298    97    97
  299   313   313
  300   291   291
  301    88    88
  302   293   293
  303   415   415
  304   207   207
  305   280   280
  306   300   300
  307   291   291
  308   280   280
  309    24    24
  310    21    21
  311    83    83
  312    81    81
  313    85    85
  314   482   482
  315   446   446
  316   130   130
  317   220   220
  318   228   228
  319   436   436
  320    78    78
  321   444   444
  322   207   207
  323    61    61
  324   274   274
  325   397   397
  326   455   455
  327   468   468
  328   258   258
  329    84    84
  330   173   173
  331   385   385
  332   122   122
  333   389   389
  334   268   268
  335    62    62
  336   157   157
  337   196   196
  338   371   371
  339    76    76
  340   346   346
  341    61    61
  342   263   263
  343   232   232
  344   111   111
  345   483   483
  346    27    27
  347   464   464
  348   395   395
  349   281   281
  350   116   116
  351   285   285
  352   217   217
  353   385   385
  354    44    44
  355    72    72
  356   339   339
  357   409   409
  358   431   431
  359    34    34
  360   417   417
  361   486   486
  362   460   460
  363    75    75
  364     6     6
  365   383   383
  366    66    66
  367    79    79
  368   142   142
  369   451   451
  370    50    50
  371   500   500
  372   458   458
  373    17    17
  374    50    50
  375    16    16
  376    25    25
  377     6     6
  378   348   348
  379   224   224
  380   444   444
  381    85    85
  382   409   409
  383   389   389
  384   452   452
  385   147   147
  386   122   122
  387   303   303
  388    37    37
  389   424   424
  390    85    85
  391    20    20
  392   302   302
  393   222   222
  394    49    49
  395   408   408
  396   157   157
  397     9     9
  398    11    11
  399   276   276
  400    33    33
  401   289   289
  402    13    13
  403   203   203
  404   130   130
  405   269   269
  406   121   121
  407    37    37
  408   435   435
  409   101   101
  410   395   395
  411   183   183
  412     9     9
  413   419   419
  414   304   304
  415   268   268
  416   144   144
  417    22    22
  418   159   159
  419   248   248
  420   440   440
  421   139   139
  422   310   310
  423   118   118
  424   250   250
  425   341   341
  426   210   210
  427   211   211
  428     6     6
  429   376   376
  430   156   156
  431   386   386
  432   451   451
  433   423   423
  434    44    44
  435   350   350
  436   290   290
  437    76    76
  438    56    56
  439   417   417
  440   212   212
  441   340   340
  442    30    30
  443    15    15
  444   423   423
  445   280   280
  446   252   252
  447   238   238
  448   157   157
  449   246   246
  450   405   405
  451   146   146
  452   488   488
  453   114   114
  454   181   181
  455   276   276
  456   478   478
  457     2     2
  458   489   489
  459   257   257
  460   361   361
  461   348   348
  462     1     1
  463   313   313
  464   324   324
  465   475   475
  466    79    79
  467   369   369
  468   500   500
  469   304   304
  470   256   256
  471   470   470
  472   269   269
  473   204   204
  474   331   331
  475   420   420
  476   257   257
  477   255   255
  478   210   210
  479    99    99
  480   299   299
  481   392   392
  482   142   142
  483   338   338
  484    34    34
  485   380   380
  486   371   371
  487   362   362
  488   445   445
  489   433   433
  490    88    88
  491   441   441
  492    43    43
  493   264   264
  494   373   373
  495   240   240
  496    16    16
  497   271   271
  498   306   306
  499   159   159
  500   434   434
61987
